\ Model I_UFL
\ LP format - for model browsing. Use MPS format to capture full model detail.
Minimize
  2 C0 + 6 C1 + C2 + 3 C3 + C4 + 4 C5 + 15 C6 + 18 C7 + 10 C8 + 17 C9
   + 2 C10 + 4 C11 + 4 C12 + 7 C13 + 9 C14 + 2 C15 + 8 C16 + 5 C17 + 8 C18
   + 9 C19 + 2 C20 + 9 C21 + 6 C23 + 9 C24 + 2 C25 + 4 C26 + 3 C27 + 6 C28
   + 8 C29 + 4 C30 + 6 C31 + 10 C32 + 8 C33 + 8 C34 + 10 C35 + 2 C36
   + 7 C37 + 7 C38 + 8 C39 + 7 C40 + 3 C41 + C43 + 3 C44 + 8 C45 + 9 C46
   + 4 C47 + 10 C48 + 9 C50 + 5 C51 + 10 C52 + 9 C53 + 2 C54 + 4 C55 + C56
   + 4 C57 + 4 C58 + 3 C59 + 9 C60 + 5 C61 + 7 C62 + 7 C63 + 8 C64 + 3 C65
   + 8 C66 + 4 C67 + C68 + 9 C69 + 10 C70 + C71 + 5 C72 + 8 C73 + C74
   + 4 C76 + C77 + 10 C78 + 9 C79 + 9 C80 + 10 C81 + 7 C82 + 7 C83 + 4 C84
   + C85 + 4 C86 + 5 C87 + 5 C88 + 8 C89 + 6 C90 + 9 C91 + 6 C92 + 9 C93
   + C94 + 8 C95 + 10 C96 + 2 C97 + 9 C98 + 7 C99 + 7 C100 + 7 C101
   + 8 C102 + 5 C103 + 8 C104 + 5 C105 + 9 C106 + C107 + 9 C108 + 2 C109
Subject To
 R0: C0 - C10 >= 0
 R1: C0 - C11 >= 0
 R2: C0 - C12 >= 0
 R3: C0 - C13 >= 0
 R4: C0 - C14 >= 0
 R5: C0 - C15 >= 0
 R6: C0 - C16 >= 0
 R7: C0 - C17 >= 0
 R8: C0 - C18 >= 0
 R9: C0 - C19 >= 0
 R10: C1 - C20 >= 0
 R11: C1 - C21 >= 0
 R12: C1 - C22 >= 0
 R13: C1 - C23 >= 0
 R14: C1 - C24 >= 0
 R15: C1 - C25 >= 0
 R16: C1 - C26 >= 0
 R17: C1 - C27 >= 0
 R18: C1 - C28 >= 0
 R19: C1 - C29 >= 0
 R20: C2 - C30 >= 0
 R21: C2 - C31 >= 0
 R22: C2 - C32 >= 0
 R23: C2 - C33 >= 0
 R24: C2 - C34 >= 0
 R25: C2 - C35 >= 0
 R26: C2 - C36 >= 0
 R27: C2 - C37 >= 0
 R28: C2 - C38 >= 0
 R29: C2 - C39 >= 0
 R30: C3 - C40 >= 0
 R31: C3 - C41 >= 0
 R32: C3 - C42 >= 0
 R33: C3 - C43 >= 0
 R34: C3 - C44 >= 0
 R35: C3 - C45 >= 0
 R36: C3 - C46 >= 0
 R37: C3 - C47 >= 0
 R38: C3 - C48 >= 0
 R39: C3 - C49 >= 0
 R40: C4 - C50 >= 0
 R41: C4 - C51 >= 0
 R42: C4 - C52 >= 0
 R43: C4 - C53 >= 0
 R44: C4 - C54 >= 0
 R45: C4 - C55 >= 0
 R46: C4 - C56 >= 0
 R47: C4 - C57 >= 0
 R48: C4 - C58 >= 0
 R49: C4 - C59 >= 0
 R50: C5 - C60 >= 0
 R51: C5 - C61 >= 0
 R52: C5 - C62 >= 0
 R53: C5 - C63 >= 0
 R54: C5 - C64 >= 0
 R55: C5 - C65 >= 0
 R56: C5 - C66 >= 0
 R57: C5 - C67 >= 0
 R58: C5 - C68 >= 0
 R59: C5 - C69 >= 0
 R60: C6 - C70 >= 0
 R61: C6 - C71 >= 0
 R62: C6 - C72 >= 0
 R63: C6 - C73 >= 0
 R64: C6 - C74 >= 0
 R65: C6 - C75 >= 0
 R66: C6 - C76 >= 0
 R67: C6 - C77 >= 0
 R68: C6 - C78 >= 0
 R69: C6 - C79 >= 0
 R70: C7 - C80 >= 0
 R71: C7 - C81 >= 0
 R72: C7 - C82 >= 0
 R73: C7 - C83 >= 0
 R74: C7 - C84 >= 0
 R75: C7 - C85 >= 0
 R76: C7 - C86 >= 0
 R77: C7 - C87 >= 0
 R78: C7 - C88 >= 0
 R79: C7 - C89 >= 0
 R80: C8 - C90 >= 0
 R81: C8 - C91 >= 0
 R82: C8 - C92 >= 0
 R83: C8 - C93 >= 0
 R84: C8 - C94 >= 0
 R85: C8 - C95 >= 0
 R86: C8 - C96 >= 0
 R87: C8 - C97 >= 0
 R88: C8 - C98 >= 0
 R89: C8 - C99 >= 0
 R90: C9 - C100 >= 0
 R91: C9 - C101 >= 0
 R92: C9 - C102 >= 0
 R93: C9 - C103 >= 0
 R94: C9 - C104 >= 0
 R95: C9 - C105 >= 0
 R96: C9 - C106 >= 0
 R97: C9 - C107 >= 0
 R98: C9 - C108 >= 0
 R99: C9 - C109 >= 0
 R100: C10 + C20 + C30 + C40 + C50 + C60 + C70 + C80 + C90 + C100 = 1
 R101: C11 + C21 + C31 + C41 + C51 + C61 + C71 + C81 + C91 + C101 = 1
 R102: C12 + C22 + C32 + C42 + C52 + C62 + C72 + C82 + C92 + C102 = 1
 R103: C13 + C23 + C33 + C43 + C53 + C63 + C73 + C83 + C93 + C103 = 1
 R104: C14 + C24 + C34 + C44 + C54 + C64 + C74 + C84 + C94 + C104 = 1
 R105: C15 + C25 + C35 + C45 + C55 + C65 + C75 + C85 + C95 + C105 = 1
 R106: C16 + C26 + C36 + C46 + C56 + C66 + C76 + C86 + C96 + C106 = 1
 R107: C17 + C27 + C37 + C47 + C57 + C67 + C77 + C87 + C97 + C107 = 1
 R108: C18 + C28 + C38 + C48 + C58 + C68 + C78 + C88 + C98 + C108 = 1
 R109: C19 + C29 + C39 + C49 + C59 + C69 + C79 + C89 + C99 + C109 = 1
Bounds
Binaries
 C0 C1 C2 C3 C4 C5 C6 C7 C8 C9 C10 C11 C12 C13 C14 C15 C16 C17 C18 C19 C20
 C21 C22 C23 C24 C25 C26 C27 C28 C29 C30 C31 C32 C33 C34 C35 C36 C37 C38
 C39 C40 C41 C42 C43 C44 C45 C46 C47 C48 C49 C50 C51 C52 C53 C54 C55 C56
 C57 C58 C59 C60 C61 C62 C63 C64 C65 C66 C67 C68 C69 C70 C71 C72 C73 C74
 C75 C76 C77 C78 C79 C80 C81 C82 C83 C84 C85 C86 C87 C88 C89 C90 C91 C92
 C93 C94 C95 C96 C97 C98 C99 C100 C101 C102 C103 C104 C105 C106 C107 C108
 C109
End
